c Random generated cnf formula, satisfiable: true
p cnf 10 50
-1 9 -6 0
-9 2 -7 0
6 -2 8 0
3 10 -9 0
-1 6 5 0
-6 8 -1 0
6 -8 7 0
1 8 -4 0
10 1 -4 0
-2 3 7 0
3 4 -7 0
-8 -1 -7 0
4 -5 -7 0
6 -4 -1 0
-2 10 -3 0
8 5 7 0
1 -7 -10 0
7 -6 -10 0
8 -5 9 0
5 4 -2 0
7 -3 6 0
4 -6 -9 0
-4 8 -6 0
-2 5 -6 0
-1 -4 10 0
8 6 -5 0
-10 5 -1 0
5 -1 -9 0
-8 -5 1 0
-10 4 1 0
8 9 -10 0
1 6 -3 0
-3 -4 -7 0
-4 10 9 0
2 9 -7 0
-4 -3 2 0
5 -6 -2 0
4 6 2 0
8 4 2 0
-4 -8 -10 0
10 6 -4 0
4 -7 -2 0
-9 6 7 0
-3 5 -7 0
-10 6 3 0
-8 -10 -2 0
8 -10 5 0
5 3 10 0
6 -1 7 0
3 -10 8 0
